0 4918
2401 4793
4802 4716
7203 4639
9604 4579
12005 4523
14406 4480
16807 4438
19208 4384
21609 4345
24010 4317
26411 4276
28812 4245
31213 4201
33614 4189
36015 4179
38416 4169
40817 4148
43218 4129
45619 4118
48020 4094
50421 4086
52822 4083
55223 4067
57624 4054
60025 4047
62426 4033
64827 4026
67228 4023
74431 4018
76832 4012
79233 4006
81634 4005
91238 4003
112847 4002
144060 4001
146461 3998
148862 3993
163268 3987
165669 3984
172872 3982
175273 3978
300125 3974
302526 3973
309729 3968
312130 3966
314531 3965
316932 3962
319333 3957
321734 3954
521017 3953
523418 3946
525819 3945
